NAME: d198
COMMENT: Quick (5min) local search tour for d198 (17998.633904658942)
TYPE: TOUR
DIMENSION: 198
TOUR_SECTION: 1 2 7 6 3 4 5 8 9 10 11 12 13 41 40 15 14 29 30 28 32 31 38 37 36 33 34 39 47 52 46 53 62 61 54 45 67 60 59 56 55 44 43 42 57 58 69 71 85 86 100 99 87 84 68 72 73 70 66 74 83 88 98 97 89 90 96 95 94 93 101 102 103 104 105 114 113 112 106 107 111 110 120 138 139 154 155 156 157 158 159 160 148 153 161 162 152 149 150 151 163 164 165 166 172 171 128 170 127 129 137 144 145 143 146 147 142 140 141 136 133 135 134 132 131 130 126 125 169 124 123 121 122 115 116 117 118 119 109 108 168 167 79 92 91 80 78 64 77 76 81 82 75 65 51 50 63 49 48 35 189 190 191 188 187 192 193 186 196 197 198 195 194 179 185 184 180 178 174 173 176 175 177 181 183 182 26 27 22 23 25 24 21 20 19 18 16 17 -1
EOF